100 36 100
32 94 20 35 85 79 27 41 21 6 63 8 80 87 24 33 90 46 52 6 40 9 61 55 50 58 87 30 1 33 14 53 79 35 40 65 66 67 58 40 73 21 48 54 9 25 39 51 71 44 57 63 5 18 18 56 28 5 38 81 91 52 34 70 87 26 35 6 94 94 46 19 67 94 25 76 19 65 27 42 61 36 6 66 6 76 74 35 82 12 68 25 17 3 95 4 29 83 10 75 
